&projwfc
    prefix='li'
    outdir = './QE-outdir/'
    ngauss=0
    degauss=0.03
    DeltaE=.020000
/
