 &control
    calculation = 'bands'
    restart_mode='from_scratch',
    prefix='li',
    tstress = .true.
    tprnfor = .true.
    pseudo_dir = './pseudopot/',
    outdir = './QE-outdir/',
 /
 &system
    ibrav=  3,
    celldm(1) = 6.4319,
    nat=  1, ntyp= 1, ecutwfc = 20.0,
    occupations='smearing', smearing='methfessel-paxton', degauss=0.01
    nbnd= 8
 /
 &electrons
    mixing_mode = 'plain'
    mixing_beta = 0.7
    conv_thr =  1.0d-8
 /
ATOMIC_SPECIES
 Li  6.94 Li.pbe-mt_fhi.UPF
ATOMIC_POSITIONS
 Li 0.00 0.00 0.00
K_POINTS
 61
    0.00  0.00 0.00 1
    0.05  0.00 0.00 2
    0.10  0.00 0.00 3
    0.15  0.00 0.00 4
    0.20  0.00 0.00 5
    0.25  0.00 0.00 6
    0.30  0.00 0.00 7
    0.35  0.00 0.00 8
    0.40  0.00 0.00 9
    0.45  0.00 0.00 10
    0.50  0.00 0.00 11
    0.55  0.00 0.00 12
    0.60  0.00 0.00 13
    0.65  0.00 0.00 14
    0.70  0.00 0.00 15
    0.75  0.00 0.00 16
    0.80  0.00 0.00 17
    0.85  0.00 0.00 18
    0.90  0.00 0.00 19
    0.95  0.00 0.00 20
    1.00   0.00  0.00 21
    0.95   0.05  0.00 22
    0.90   0.10  0.00 23
    0.85   0.15  0.00 24
    0.80   0.20  0.00 25
    0.75   0.25  0.00 26
    0.70   0.30  0.00 27
    0.65   0.35  0.00 28
    0.60   0.40  0.00 29
    0.55   0.45  0.00 30
    0.50   0.50  0.00 31
    0.45   0.45  0.00 32
    0.40   0.40  0.00 33
    0.35   0.35  0.00 34
    0.30   0.30  0.00 35
    0.25   0.25  0.00 36
    0.20   0.20  0.00 37
    0.15   0.15  0.00 38
    0.10   0.10  0.00 39
    0.05   0.05  0.00 40
    0.00   0.00   0.00   41
    0.05   0.05   0.05   42
    0.10   0.10   0.10   43
    0.15   0.15   0.15   44
    0.20   0.20   0.20   45
    0.25   0.25   0.25   46
    0.30   0.30   0.30   47
    0.35   0.35   0.35   48
    0.40   0.40   0.40   49
    0.45   0.45   0.45   50
    0.50   0.50   0.50   51
    0.55   0.45   0.45   52
    0.60   0.40   0.40   53
    0.65   0.35   0.35   54
    0.70   0.30   0.30   55
    0.75   0.25   0.25   56
    0.80   0.20   0.20   57
    0.85   0.15   0.15   58
    0.90   0.10   0.10   59
    0.95   0.05   0.05   60
    1.00   0.00   0.00   61
