 &input
   title='Li',
   zed=3.,
   rel=0,
   isic=0,
   config= '1s2 2s1',   !! or '1s2.0 2s1.0'
   lsd=0
   iswitch=1,
   dft='PBE'
   prefix='4-Li'
   file_charge='4-Li.charge'
 /
